c Reduction to CNF
p cnf 35 195
1 6 11 16 21 26 31 0
2 7 12 17 22 27 32 0
3 8 13 18 23 28 33 0
4 9 14 19 24 29 34 0
5 10 15 20 25 30 35 0
-1 -2 0
-1 -3 0
-2 -3 0
-1 -4 0
-2 -4 0
-3 -4 0
-1 -5 0
-2 -5 0
-3 -5 0
-4 -5 0
-6 -7 0
-6 -8 0
-7 -8 0
-6 -9 0
-7 -9 0
-8 -9 0
-6 -10 0
-7 -10 0
-8 -10 0
-9 -10 0
-11 -12 0
-11 -13 0
-12 -13 0
-11 -14 0
-12 -14 0
-13 -14 0
-11 -15 0
-12 -15 0
-13 -15 0
-14 -15 0
-16 -17 0
-16 -18 0
-17 -18 0
-16 -19 0
-17 -19 0
-18 -19 0
-16 -20 0
-17 -20 0
-18 -20 0
-19 -20 0
-21 -22 0
-21 -23 0
-22 -23 0
-21 -24 0
-22 -24 0
-23 -24 0
-21 -25 0
-22 -25 0
-23 -25 0
-24 -25 0
-26 -27 0
-26 -28 0
-27 -28 0
-26 -29 0
-27 -29 0
-28 -29 0
-26 -30 0
-27 -30 0
-28 -30 0
-29 -30 0
-31 -32 0
-31 -33 0
-32 -33 0
-31 -34 0
-32 -34 0
-33 -34 0
-31 -35 0
-32 -35 0
-33 -35 0
-34 -35 0
-6 -17 0
-6 -18 0
-6 -19 0
-6 -20 0
-7 -16 0
-7 -18 0
-7 -19 0
-7 -20 0
-8 -16 0
-8 -17 0
-8 -19 0
-8 -20 0
-9 -16 0
-9 -17 0
-9 -18 0
-9 -20 0
-10 -16 0
-10 -17 0
-10 -18 0
-10 -19 0
-6 -22 0
-6 -23 0
-6 -24 0
-6 -25 0
-7 -21 0
-7 -23 0
-7 -24 0
-7 -25 0
-8 -21 0
-8 -22 0
-8 -24 0
-8 -25 0
-9 -21 0
-9 -22 0
-9 -23 0
-9 -25 0
-10 -21 0
-10 -22 0
-10 -23 0
-10 -24 0
-11 -22 0
-11 -23 0
-11 -24 0
-11 -25 0
-12 -21 0
-12 -23 0
-12 -24 0
-12 -25 0
-13 -21 0
-13 -22 0
-13 -24 0
-13 -25 0
-14 -21 0
-14 -22 0
-14 -23 0
-14 -25 0
-15 -21 0
-15 -22 0
-15 -23 0
-15 -24 0
-1 -27 0
-1 -28 0
-1 -29 0
-1 -30 0
-2 -26 0
-2 -28 0
-2 -29 0
-2 -30 0
-3 -26 0
-3 -27 0
-3 -29 0
-3 -30 0
-4 -26 0
-4 -27 0
-4 -28 0
-4 -30 0
-5 -26 0
-5 -27 0
-5 -28 0
-5 -29 0
-1 -32 0
-1 -33 0
-1 -34 0
-1 -35 0
-2 -31 0
-2 -33 0
-2 -34 0
-2 -35 0
-3 -31 0
-3 -32 0
-3 -34 0
-3 -35 0
-4 -31 0
-4 -32 0
-4 -33 0
-4 -35 0
-5 -31 0
-5 -32 0
-5 -33 0
-5 -34 0
-11 -32 0
-11 -33 0
-11 -34 0
-11 -35 0
-12 -31 0
-12 -33 0
-12 -34 0
-12 -35 0
-13 -31 0
-13 -32 0
-13 -34 0
-13 -35 0
-14 -31 0
-14 -32 0
-14 -33 0
-14 -35 0
-15 -31 0
-15 -32 0
-15 -33 0
-15 -34 0
